
  12    4
  10   10   10   10

   0   0   0   0   0   6 2 3 4 5 10 11 
   5  10  10  10  10   3 9 8 7 
   6  10  10  10  10   3 8 7 6 
  10  10  10  10  10   2 7 6 
   6  10  10  10  10   1 6 
   1  10  10  10  10   1 12
  10  10  10  10  10   1 12
   4  10  10  10  10   1 12
   6  10  10  10  10   1 12
   5  10  10  10  10   1 12
   1  10  10  10  10   1 12
   0   0   0   0   0   0 
